0
Node Left Objective IInf Best_Integer Best_Bound ItCnt Gap
0 0 0.0017 10 0.0017 17
0 2 0.0017 10 0.0017 17 0 0
CPXPARAM_MIP_Cuts_Gomory-FlowCovers-LiftProj-MIRCut:Gomory 0
CPXPARAM_MIP_Cuts_Gomory-FlowCovers-LiftProj-MIRCut:FlowCovers 0
CPXPARAM_MIP_Cuts_Gomory-FlowCovers-LiftProj-MIRCut:LiftProj 0
CPXPARAM_MIP_Cuts_Gomory-FlowCovers-LiftProj-MIRCut:MIRCut 0
1
Node Left Objective IInf Best_Integer Best_Bound ItCnt Gap
0 0 1.3457 30 1.3457 20
0 2 1.3457 30 1.4236 20 0 0
CPXPARAM_MIP_Cuts_Gomory-FlowCovers-LiftProj-MIRCut:Gomory 0
CPXPARAM_MIP_Cuts_Gomory-FlowCovers-LiftProj-MIRCut:FlowCovers 0
CPXPARAM_MIP_Cuts_Gomory-FlowCovers-LiftProj-MIRCut:LiftProj 0
CPXPARAM_MIP_Cuts_Gomory-FlowCovers-LiftProj-MIRCut:MIRCut 0
2
Node Left Objective IInf Best_Integer Best_Bound ItCnt Gap
0 0 0.0000 4 0.0000 18
0 2 0.0000 4 0.0000 18 0 0
CPXPARAM_MIP_Cuts_Gomory-FlowCovers-LiftProj-MIRCut:Gomory 0
CPXPARAM_MIP_Cuts_Gomory-FlowCovers-LiftProj-MIRCut:FlowCovers 0
CPXPARAM_MIP_Cuts_Gomory-FlowCovers-LiftProj-MIRCut:LiftProj 0
CPXPARAM_MIP_Cuts_Gomory-FlowCovers-LiftProj-MIRCut:MIRCut 0
3
Node Left Objective IInf Best_Integer Best_Bound ItCnt Gap
0 0 2.4897 29 2.4897 25
0 0 3.5555 31 Fract:18 52
0 0 7.1094 26 MIRcuts:43 133
0 0 13.4449 25 Cuts:30 227
0 0 20.5882 22 Cuts:32 365
0 0 24.3296 20 Cuts:23 437
0 0 25.2884 20 Cuts:10 459
0 0 26.2828 21 Cuts:13 513
0 0 29.9580 22 MIRcuts:13 611
0 0 32.8937 20 Cuts:11 655
0 0 34.3492 21 MIRcuts:17 681
0 0 34.3630 22 MIRcuts:4 687
0 0 36.6063 21 Cuts:23 717
0 0 38.1640 22 Cuts:9 751
0 0 39.5777 23 Cuts:19 784
0 0 40.5766 21 Cuts:7 817
0 0 40.8928 22 MIRcuts:18 863
0 0 41.9104 21 Cuts:6 888
0 0 41.9985 22 Cuts:9 902
0 0 42.0231 19 MIRcuts:10 929
0 0 42.0543 19 Cuts:4 939
0 0 42.2262 22 Cuts:8 951
0 0 42.2265 22 MIRcuts:2 955
0 2 42.2265 22 42.2459 955 0 0
CPXPARAM_MIP_Cuts_Gomory-FlowCovers-LiftProj-MIRCut:Gomory 16
CPXPARAM_MIP_Cuts_Gomory-FlowCovers-LiftProj-MIRCut:FlowCovers 28
CPXPARAM_MIP_Cuts_Gomory-FlowCovers-LiftProj-MIRCut:LiftProj 0
CPXPARAM_MIP_Cuts_Gomory-FlowCovers-LiftProj-MIRCut:MIRCut 0
4
Node Left Objective IInf Best_Integer Best_Bound ItCnt Gap
0 0 1.7188 15 1.7188 17
0 0 1.7642 18 Cuts:11 45
0 0 1.7726 18 Cuts:20 80
0 0 1.8302 19 Cuts:35 121
0 0 1.9021 19 Cuts:23 163
0 0 cutoff 242 0 0
CPXPARAM_MIP_Cuts_Gomory-FlowCovers-LiftProj-MIRCut:Gomory 5
CPXPARAM_MIP_Cuts_Gomory-FlowCovers-LiftProj-MIRCut:FlowCovers 14
CPXPARAM_MIP_Cuts_Gomory-FlowCovers-LiftProj-MIRCut:LiftProj 0
CPXPARAM_MIP_Cuts_Gomory-FlowCovers-LiftProj-MIRCut:MIRCut 1
5
Node Left Objective IInf Best_Integer Best_Bound ItCnt Gap
0 0 1.0822 27 1.0822 17
0 2 1.0822 27 1.0822 17 0 0
CPXPARAM_MIP_Cuts_Gomory-FlowCovers-LiftProj-MIRCut:Gomory 0
CPXPARAM_MIP_Cuts_Gomory-FlowCovers-LiftProj-MIRCut:FlowCovers 0
CPXPARAM_MIP_Cuts_Gomory-FlowCovers-LiftProj-MIRCut:LiftProj 0
CPXPARAM_MIP_Cuts_Gomory-FlowCovers-LiftProj-MIRCut:MIRCut 0
6
Node Left Objective IInf Best_Integer Best_Bound ItCnt Gap
0 0 0.9112 17 0.9112 17
0 0 0.9112 17 MIRcuts:11 21
0 0 0.9112 17 MIRcuts:19 35
0 2 0.9112 17 0.9979 35 0 0
CPXPARAM_MIP_Cuts_Gomory-FlowCovers-LiftProj-MIRCut:Gomory 0
CPXPARAM_MIP_Cuts_Gomory-FlowCovers-LiftProj-MIRCut:FlowCovers 5
CPXPARAM_MIP_Cuts_Gomory-FlowCovers-LiftProj-MIRCut:LiftProj 0
CPXPARAM_MIP_Cuts_Gomory-FlowCovers-LiftProj-MIRCut:MIRCut 0
7
Node Left Objective IInf Best_Integer Best_Bound ItCnt Gap
0 0 0.7760 26 0.7760 17
0 2 0.7760 26 0.7760 17 0 0
CPXPARAM_MIP_Cuts_Gomory-FlowCovers-LiftProj-MIRCut:Gomory 0
CPXPARAM_MIP_Cuts_Gomory-FlowCovers-LiftProj-MIRCut:FlowCovers 0
CPXPARAM_MIP_Cuts_Gomory-FlowCovers-LiftProj-MIRCut:LiftProj 0
CPXPARAM_MIP_Cuts_Gomory-FlowCovers-LiftProj-MIRCut:MIRCut 0
8
Node Left Objective IInf Best_Integer Best_Bound ItCnt Gap
0 0 0.0000 7 0.0000 18
0 2 0.0000 7 0.0000 18 0 0
CPXPARAM_MIP_Cuts_Gomory-FlowCovers-LiftProj-MIRCut:Gomory 0
CPXPARAM_MIP_Cuts_Gomory-FlowCovers-LiftProj-MIRCut:FlowCovers 0
CPXPARAM_MIP_Cuts_Gomory-FlowCovers-LiftProj-MIRCut:LiftProj 0
CPXPARAM_MIP_Cuts_Gomory-FlowCovers-LiftProj-MIRCut:MIRCut 0
9
Node Left Objective IInf Best_Integer Best_Bound ItCnt Gap
0 0 0.0001 24 0.0001 19
0 2 0.0001 24 0.0001 19 0 0
CPXPARAM_MIP_Cuts_Gomory-FlowCovers-LiftProj-MIRCut:Gomory 0
CPXPARAM_MIP_Cuts_Gomory-FlowCovers-LiftProj-MIRCut:FlowCovers 0
CPXPARAM_MIP_Cuts_Gomory-FlowCovers-LiftProj-MIRCut:LiftProj 0
CPXPARAM_MIP_Cuts_Gomory-FlowCovers-LiftProj-MIRCut:MIRCut 0
10
Node Left Objective IInf Best_Integer Best_Bound ItCnt Gap
0 0 0.0000 4 0.0000 18
0 2 0.0000 4 0.0000 18 0 0
CPXPARAM_MIP_Cuts_Gomory-FlowCovers-LiftProj-MIRCut:Gomory 0
CPXPARAM_MIP_Cuts_Gomory-FlowCovers-LiftProj-MIRCut:FlowCovers 0
CPXPARAM_MIP_Cuts_Gomory-FlowCovers-LiftProj-MIRCut:LiftProj 0
CPXPARAM_MIP_Cuts_Gomory-FlowCovers-LiftProj-MIRCut:MIRCut 0
11
Node Left Objective IInf Best_Integer Best_Bound ItCnt Gap
0 0 0.0000 15 0.0000 18
0 2 0.0000 15 0.0000 18 0 0
CPXPARAM_MIP_Cuts_Gomory-FlowCovers-LiftProj-MIRCut:Gomory 0
CPXPARAM_MIP_Cuts_Gomory-FlowCovers-LiftProj-MIRCut:FlowCovers 0
CPXPARAM_MIP_Cuts_Gomory-FlowCovers-LiftProj-MIRCut:LiftProj 0
CPXPARAM_MIP_Cuts_Gomory-FlowCovers-LiftProj-MIRCut:MIRCut 0
12
Node Left Objective IInf Best_Integer Best_Bound ItCnt Gap
0 0 0.0000 5 0.0000 18
0 2 0.0000 5 0.0000 18 0 0
CPXPARAM_MIP_Cuts_Gomory-FlowCovers-LiftProj-MIRCut:Gomory 0
CPXPARAM_MIP_Cuts_Gomory-FlowCovers-LiftProj-MIRCut:FlowCovers 0
CPXPARAM_MIP_Cuts_Gomory-FlowCovers-LiftProj-MIRCut:LiftProj 0
CPXPARAM_MIP_Cuts_Gomory-FlowCovers-LiftProj-MIRCut:MIRCut 0
13
Node Left Objective IInf Best_Integer Best_Bound ItCnt Gap
0 0 0.0000 17 0.0000 19
0 2 0.0000 17 0.0000 19 0 0
CPXPARAM_MIP_Cuts_Gomory-FlowCovers-LiftProj-MIRCut:Gomory 0
CPXPARAM_MIP_Cuts_Gomory-FlowCovers-LiftProj-MIRCut:FlowCovers 0
CPXPARAM_MIP_Cuts_Gomory-FlowCovers-LiftProj-MIRCut:LiftProj 0
CPXPARAM_MIP_Cuts_Gomory-FlowCovers-LiftProj-MIRCut:MIRCut 0
14
Node Left Objective IInf Best_Integer Best_Bound ItCnt Gap
0 0 0.0000 4 0.0000 18
0 2 0.0000 4 0.0000 18 0 0
CPXPARAM_MIP_Cuts_Gomory-FlowCovers-LiftProj-MIRCut:Gomory 0
CPXPARAM_MIP_Cuts_Gomory-FlowCovers-LiftProj-MIRCut:FlowCovers 0
CPXPARAM_MIP_Cuts_Gomory-FlowCovers-LiftProj-MIRCut:LiftProj 0
CPXPARAM_MIP_Cuts_Gomory-FlowCovers-LiftProj-MIRCut:MIRCut 0
15
Node Left Objective IInf Best_Integer Best_Bound ItCnt Gap
0 0 0.0000 16 0.0000 19
0 2 0.0000 16 0.0000 19 0 0
CPXPARAM_MIP_Cuts_Gomory-FlowCovers-LiftProj-MIRCut:Gomory 0
CPXPARAM_MIP_Cuts_Gomory-FlowCovers-LiftProj-MIRCut:FlowCovers 0
CPXPARAM_MIP_Cuts_Gomory-FlowCovers-LiftProj-MIRCut:LiftProj 0
CPXPARAM_MIP_Cuts_Gomory-FlowCovers-LiftProj-MIRCut:MIRCut 0
16
Node Left Objective IInf Best_Integer Best_Bound ItCnt Gap
0 0 0.0000 4 0.0000 18
0 2 0.0000 4 0.0000 18 0 0
CPXPARAM_MIP_Cuts_Gomory-FlowCovers-LiftProj-MIRCut:Gomory 0
CPXPARAM_MIP_Cuts_Gomory-FlowCovers-LiftProj-MIRCut:FlowCovers 0
CPXPARAM_MIP_Cuts_Gomory-FlowCovers-LiftProj-MIRCut:LiftProj 0
CPXPARAM_MIP_Cuts_Gomory-FlowCovers-LiftProj-MIRCut:MIRCut 0
17
Node Left Objective IInf Best_Integer Best_Bound ItCnt Gap
0 0 0.1425 28 0.1425 19
0 2 0.1425 28 0.1425 19 0 0
CPXPARAM_MIP_Cuts_Gomory-FlowCovers-LiftProj-MIRCut:Gomory 0
CPXPARAM_MIP_Cuts_Gomory-FlowCovers-LiftProj-MIRCut:FlowCovers 0
CPXPARAM_MIP_Cuts_Gomory-FlowCovers-LiftProj-MIRCut:LiftProj 0
CPXPARAM_MIP_Cuts_Gomory-FlowCovers-LiftProj-MIRCut:MIRCut 0
18
Node Left Objective IInf Best_Integer Best_Bound ItCnt Gap
0 0 0.0000 4 0.0000 18
0 2 0.0000 4 0.0000 18 0 0
CPXPARAM_MIP_Cuts_Gomory-FlowCovers-LiftProj-MIRCut:Gomory 0
CPXPARAM_MIP_Cuts_Gomory-FlowCovers-LiftProj-MIRCut:FlowCovers 0
CPXPARAM_MIP_Cuts_Gomory-FlowCovers-LiftProj-MIRCut:LiftProj 0
CPXPARAM_MIP_Cuts_Gomory-FlowCovers-LiftProj-MIRCut:MIRCut 0
19
Node Left Objective IInf Best_Integer Best_Bound ItCnt Gap
0 0 0.0000 14 0.0000 19
0 2 0.0000 14 0.0000 19 0 0
CPXPARAM_MIP_Cuts_Gomory-FlowCovers-LiftProj-MIRCut:Gomory 0
CPXPARAM_MIP_Cuts_Gomory-FlowCovers-LiftProj-MIRCut:FlowCovers 0
CPXPARAM_MIP_Cuts_Gomory-FlowCovers-LiftProj-MIRCut:LiftProj 0
CPXPARAM_MIP_Cuts_Gomory-FlowCovers-LiftProj-MIRCut:MIRCut 0
20
Node Left Objective IInf Best_Integer Best_Bound ItCnt Gap
0 0 infeasible 21
CPXPARAM_MIP_Cuts_Gomory-FlowCovers-LiftProj-MIRCut:Gomory 0
CPXPARAM_MIP_Cuts_Gomory-FlowCovers-LiftProj-MIRCut:FlowCovers 0
CPXPARAM_MIP_Cuts_Gomory-FlowCovers-LiftProj-MIRCut:LiftProj 0
CPXPARAM_MIP_Cuts_Gomory-FlowCovers-LiftProj-MIRCut:MIRCut 0
21
Node Left Objective IInf Best_Integer Best_Bound ItCnt Gap
0 0 2.2504 29 2.2504 19
0 2 2.2504 29 2.3241 19 0 0
CPXPARAM_MIP_Cuts_Gomory-FlowCovers-LiftProj-MIRCut:Gomory 0
CPXPARAM_MIP_Cuts_Gomory-FlowCovers-LiftProj-MIRCut:FlowCovers 0
CPXPARAM_MIP_Cuts_Gomory-FlowCovers-LiftProj-MIRCut:LiftProj 0
CPXPARAM_MIP_Cuts_Gomory-FlowCovers-LiftProj-MIRCut:MIRCut 0
22
Node Left Objective IInf Best_Integer Best_Bound ItCnt Gap
0 0 infeasible 23
CPXPARAM_MIP_Cuts_Gomory-FlowCovers-LiftProj-MIRCut:Gomory 0
CPXPARAM_MIP_Cuts_Gomory-FlowCovers-LiftProj-MIRCut:FlowCovers 0
CPXPARAM_MIP_Cuts_Gomory-FlowCovers-LiftProj-MIRCut:LiftProj 0
CPXPARAM_MIP_Cuts_Gomory-FlowCovers-LiftProj-MIRCut:MIRCut 0
23
Node Left Objective IInf Best_Integer Best_Bound ItCnt Gap
0 0 4.7944 28 4.7944 16
0 0 41.4994 28 Fract:28 76
0 0 155.1484 21 Cuts:106 272
0 0 199.3926 27 Cuts:66 447
0 0 214.4787 27 Cuts:50 604
0 0 227.1497 24 Cuts:36 715
0 0 229.0432 20 Cuts:20 778
0 0 233.2906 26 Cuts:17 848
0 0 234.8796 28 Cuts:18 894
0 0 236.3046 28 Cuts:14 926
0 0 236.5634 27 MIRcuts:5 940
0 0 236.8338 29 Cuts:9 959
0 0 236.8664 30 Cuts:4 967
0 0 237.0081 29 Cuts:7 976
0 0 237.0159 29 MIRcuts:4 979
0 0 237.0161 29 MIRcuts:1 980
0 2 237.0161 29 237.0942 980 0 0
CPXPARAM_MIP_Cuts_Gomory-FlowCovers-LiftProj-MIRCut:Gomory 14
CPXPARAM_MIP_Cuts_Gomory-FlowCovers-LiftProj-MIRCut:FlowCovers 39
CPXPARAM_MIP_Cuts_Gomory-FlowCovers-LiftProj-MIRCut:LiftProj 0
CPXPARAM_MIP_Cuts_Gomory-FlowCovers-LiftProj-MIRCut:MIRCut 6
24
Node Left Objective IInf Best_Integer Best_Bound ItCnt Gap
0 0 0.3379 16 0.3379 16
0 0 0.3379 17 Cuts:18 22
0 0 0.3379 18 Cuts:15 38
0 2 0.3379 18 0.3379 38 0 0
CPXPARAM_MIP_Cuts_Gomory-FlowCovers-LiftProj-MIRCut:Gomory 0
CPXPARAM_MIP_Cuts_Gomory-FlowCovers-LiftProj-MIRCut:FlowCovers 8
CPXPARAM_MIP_Cuts_Gomory-FlowCovers-LiftProj-MIRCut:LiftProj 0
CPXPARAM_MIP_Cuts_Gomory-FlowCovers-LiftProj-MIRCut:MIRCut 0
25
Node Left Objective IInf Best_Integer Best_Bound ItCnt Gap
0 0 0.3126 20 0.3126 19
0 2 0.3126 20 0.3126 19 0 0
CPXPARAM_MIP_Cuts_Gomory-FlowCovers-LiftProj-MIRCut:Gomory 0
CPXPARAM_MIP_Cuts_Gomory-FlowCovers-LiftProj-MIRCut:FlowCovers 0
CPXPARAM_MIP_Cuts_Gomory-FlowCovers-LiftProj-MIRCut:LiftProj 0
CPXPARAM_MIP_Cuts_Gomory-FlowCovers-LiftProj-MIRCut:MIRCut 0
26
Node Left Objective IInf Best_Integer Best_Bound ItCnt Gap
0 0 0.4059 13 0.4059 19
0 0 0.4059 13 MIRcuts:19 23
0 0 0.4059 13 MIRcuts:19 35
0 2 0.4059 13 0.4059 35 0 0
CPXPARAM_MIP_Cuts_Gomory-FlowCovers-LiftProj-MIRCut:Gomory 0
CPXPARAM_MIP_Cuts_Gomory-FlowCovers-LiftProj-MIRCut:FlowCovers 11
CPXPARAM_MIP_Cuts_Gomory-FlowCovers-LiftProj-MIRCut:LiftProj 0
CPXPARAM_MIP_Cuts_Gomory-FlowCovers-LiftProj-MIRCut:MIRCut 0
27
Node Left Objective IInf Best_Integer Best_Bound ItCnt Gap
0 0 0.5802 27 0.5802 16
0 2 0.5802 26 0.5802 16 0 0
CPXPARAM_MIP_Cuts_Gomory-FlowCovers-LiftProj-MIRCut:Gomory 0
CPXPARAM_MIP_Cuts_Gomory-FlowCovers-LiftProj-MIRCut:FlowCovers 0
CPXPARAM_MIP_Cuts_Gomory-FlowCovers-LiftProj-MIRCut:LiftProj 0
CPXPARAM_MIP_Cuts_Gomory-FlowCovers-LiftProj-MIRCut:MIRCut 0
28
Node Left Objective IInf Best_Integer Best_Bound ItCnt Gap
0 0 0.0754 17 0.0754 16
0 2 0.0754 17 0.0754 16 0 0
CPXPARAM_MIP_Cuts_Gomory-FlowCovers-LiftProj-MIRCut:Gomory 0
CPXPARAM_MIP_Cuts_Gomory-FlowCovers-LiftProj-MIRCut:FlowCovers 0
CPXPARAM_MIP_Cuts_Gomory-FlowCovers-LiftProj-MIRCut:LiftProj 0
CPXPARAM_MIP_Cuts_Gomory-FlowCovers-LiftProj-MIRCut:MIRCut 0
29
Node Left Objective IInf Best_Integer Best_Bound ItCnt Gap
0 0 0.7138 30 0.7138 18
0 2 0.7138 30 0.8098 18 0 0
CPXPARAM_MIP_Cuts_Gomory-FlowCovers-LiftProj-MIRCut:Gomory 0
CPXPARAM_MIP_Cuts_Gomory-FlowCovers-LiftProj-MIRCut:FlowCovers 0
CPXPARAM_MIP_Cuts_Gomory-FlowCovers-LiftProj-MIRCut:LiftProj 0
CPXPARAM_MIP_Cuts_Gomory-FlowCovers-LiftProj-MIRCut:MIRCut 0
30
Node Left Objective IInf Best_Integer Best_Bound ItCnt Gap
0 0 infeasible 39
CPXPARAM_MIP_Cuts_Gomory-FlowCovers-LiftProj-MIRCut:Gomory 0
CPXPARAM_MIP_Cuts_Gomory-FlowCovers-LiftProj-MIRCut:FlowCovers 0
CPXPARAM_MIP_Cuts_Gomory-FlowCovers-LiftProj-MIRCut:LiftProj 0
CPXPARAM_MIP_Cuts_Gomory-FlowCovers-LiftProj-MIRCut:MIRCut 0
31
Node Left Objective IInf Best_Integer Best_Bound ItCnt Gap
0 0 0.6985 30 0.6985 20
0 2 0.6985 30 0.7008 20 0 0
CPXPARAM_MIP_Cuts_Gomory-FlowCovers-LiftProj-MIRCut:Gomory 0
CPXPARAM_MIP_Cuts_Gomory-FlowCovers-LiftProj-MIRCut:FlowCovers 0
CPXPARAM_MIP_Cuts_Gomory-FlowCovers-LiftProj-MIRCut:LiftProj 0
CPXPARAM_MIP_Cuts_Gomory-FlowCovers-LiftProj-MIRCut:MIRCut 0
32
Node Left Objective IInf Best_Integer Best_Bound ItCnt Gap
0 0 0.1213 15 0.1213 15
0 0 0.1213 16 MIRcuts:16 23
0 0 0.1213 16 MIRcuts:17 27
0 2 0.1213 16 0.1213 27 0 0
CPXPARAM_MIP_Cuts_Gomory-FlowCovers-LiftProj-MIRCut:Gomory 0
CPXPARAM_MIP_Cuts_Gomory-FlowCovers-LiftProj-MIRCut:FlowCovers 2
CPXPARAM_MIP_Cuts_Gomory-FlowCovers-LiftProj-MIRCut:LiftProj 0
CPXPARAM_MIP_Cuts_Gomory-FlowCovers-LiftProj-MIRCut:MIRCut 0
33
Node Left Objective IInf Best_Integer Best_Bound ItCnt Gap
0 0 0.3146 24 0.3146 18
0 2 0.3146 24 0.3146 18 0 0
CPXPARAM_MIP_Cuts_Gomory-FlowCovers-LiftProj-MIRCut:Gomory 0
CPXPARAM_MIP_Cuts_Gomory-FlowCovers-LiftProj-MIRCut:FlowCovers 0
CPXPARAM_MIP_Cuts_Gomory-FlowCovers-LiftProj-MIRCut:LiftProj 0
CPXPARAM_MIP_Cuts_Gomory-FlowCovers-LiftProj-MIRCut:MIRCut 0
34
Node Left Objective IInf Best_Integer Best_Bound ItCnt Gap
0 0 0.0480 14 0.0480 16
0 2 0.0480 14 0.0480 16 0 0
CPXPARAM_MIP_Cuts_Gomory-FlowCovers-LiftProj-MIRCut:Gomory 0
CPXPARAM_MIP_Cuts_Gomory-FlowCovers-LiftProj-MIRCut:FlowCovers 0
CPXPARAM_MIP_Cuts_Gomory-FlowCovers-LiftProj-MIRCut:LiftProj 0
CPXPARAM_MIP_Cuts_Gomory-FlowCovers-LiftProj-MIRCut:MIRCut 0
35
Node Left Objective IInf Best_Integer Best_Bound ItCnt Gap
0 0 0.6907 31 0.6907 19
0 2 0.6907 30 0.7209 19 0 0
CPXPARAM_MIP_Cuts_Gomory-FlowCovers-LiftProj-MIRCut:Gomory 0
CPXPARAM_MIP_Cuts_Gomory-FlowCovers-LiftProj-MIRCut:FlowCovers 0
CPXPARAM_MIP_Cuts_Gomory-FlowCovers-LiftProj-MIRCut:LiftProj 0
CPXPARAM_MIP_Cuts_Gomory-FlowCovers-LiftProj-MIRCut:MIRCut 0
36
Node Left Objective IInf Best_Integer Best_Bound ItCnt Gap
0 0 0.0097 12 0.0097 15
0 2 0.0097 12 0.0097 15 0 0
CPXPARAM_MIP_Cuts_Gomory-FlowCovers-LiftProj-MIRCut:Gomory 0
CPXPARAM_MIP_Cuts_Gomory-FlowCovers-LiftProj-MIRCut:FlowCovers 0
CPXPARAM_MIP_Cuts_Gomory-FlowCovers-LiftProj-MIRCut:LiftProj 0
CPXPARAM_MIP_Cuts_Gomory-FlowCovers-LiftProj-MIRCut:MIRCut 0
37
Node Left Objective IInf Best_Integer Best_Bound ItCnt Gap
0 0 0.0000 19 0.0000 19
0 2 0.0000 19 0.0000 19 0 0
CPXPARAM_MIP_Cuts_Gomory-FlowCovers-LiftProj-MIRCut:Gomory 0
CPXPARAM_MIP_Cuts_Gomory-FlowCovers-LiftProj-MIRCut:FlowCovers 0
CPXPARAM_MIP_Cuts_Gomory-FlowCovers-LiftProj-MIRCut:LiftProj 0
CPXPARAM_MIP_Cuts_Gomory-FlowCovers-LiftProj-MIRCut:MIRCut 0
38
Node Left Objective IInf Best_Integer Best_Bound ItCnt Gap
0 0 0.4227 17 0.4227 17
0 0 0.4227 16 Cuts:21 35
0 0 0.4642 21 Cuts:32 79
0 0 0.4971 16 Cuts:34 123
0 0 0.6979 13 Cuts:18 160
0 0 0.7463 13 MIRcuts:8 179
0 0 0.7752 11 Cuts:4 196
0 0 0.7758 11 MIRcuts:1 198
0 0 0.7761 11 MIRcuts:1 199
0 2 0.7761 11 0.7888 199 0 0
CPXPARAM_MIP_Cuts_Gomory-FlowCovers-LiftProj-MIRCut:Gomory 10
CPXPARAM_MIP_Cuts_Gomory-FlowCovers-LiftProj-MIRCut:FlowCovers 21
CPXPARAM_MIP_Cuts_Gomory-FlowCovers-LiftProj-MIRCut:LiftProj 0
CPXPARAM_MIP_Cuts_Gomory-FlowCovers-LiftProj-MIRCut:MIRCut 0
39
Node Left Objective IInf Best_Integer Best_Bound ItCnt Gap
0 0 0.0426 27 0.0426 17
0 2 0.0426 27 0.0426 17 0 0
CPXPARAM_MIP_Cuts_Gomory-FlowCovers-LiftProj-MIRCut:Gomory 0
CPXPARAM_MIP_Cuts_Gomory-FlowCovers-LiftProj-MIRCut:FlowCovers 0
CPXPARAM_MIP_Cuts_Gomory-FlowCovers-LiftProj-MIRCut:LiftProj 0
CPXPARAM_MIP_Cuts_Gomory-FlowCovers-LiftProj-MIRCut:MIRCut 0
